benchmarks_vrp/CMT11/min_c/CMT11_5.vrp
NAME: CMT11_5
TYPE: CVRP
COMMENT: 1042.11 - Cluster Nr.5
DIMENSION: 16
CAPACITY: 200
EDGE_WEIGHT_TYPE: EUC_2D
NODE_COORD_TYPE: TWOD_COORDS
NODE_COORD_SECTION: 
3 47 6
5 35 7
7 46 9
6 32 9
15 35 5
4 34 6
14 34 9
16 10 45
2 31 7
1 31 5
8 40 5
12 25 3
11 39 3
13 32 5
10 36 3
9 25 1
DEPOT_SECTION: 
16
-1
DEMAND_SECTION: 
7 19
8 13
1 13
11 12
13 6
3 17
5 5
14 11
6 5
2 14
12 7
10 18
9 25
4 15
15 15
16 0
EOF
