benchmarks_vrp/CMT11/min_c/CMT11_5.tour
NAME: CMT11_5 solution
TYPE: TOUR
TOUR_SECTION:
16 7 3 8 11 10 15 4 5 14 6 2 13 1 12 9 -1
-1
EOF